c ind 10 104 106 108 110 112 114 116 118 13 0
c ind 22 23 25 27 29 31 33 35 37 46 0
c ind 49 5 6 64 66 68 70 9 0
p cnf 118 328
-1 -2 11 0
-1 2 96 0
-100 101 0
-100 109 0
-101 102 0
-101 107 0
-102 103 0
-102 105 0
-103 -104 22 0
-103 -22 104 0
-105 -106 25 0
-105 -25 106 0
-107 -108 27 0
-107 -27 108 0
-109 -110 29 0
-109 -29 110 0
-11 -12 14 0
-11 12 38 0
-111 -112 31 0
-111 -31 112 0
-113 -114 33 0
-113 -33 114 0
-115 -116 35 0
-115 -35 116 0
-117 -118 37 0
-117 -37 118 0
-12 -13 9 0
-12 -9 13 0
-14 15 0
-14 36 0
-15 16 0
-15 34 0
-16 17 0
-16 32 0
-17 18 0
-17 30 0
-18 19 0
-18 28 0
-19 20 0
-19 26 0
-2 3 7 0
-20 21 0
-20 24 0
-21 -22 23 0
-21 -23 22 0
-23 0
-24 -23 25 0
-24 -25 23 0
-26 -23 27 0
-26 -27 23 0
-28 -23 29 0
-28 -29 23 0
-3 -4 0
-30 -23 31 0
-30 -31 23 0
-32 -23 33 0
-32 -33 23 0
-34 -23 35 0
-34 -35 23 0
-36 -23 37 0
-36 -37 23 0
-38 -39 41 0
-38 39 96 0
-39 3 0
-39 40 0
-4 -5 6 0
-4 -6 5 0
-40 -13 5 0
-40 -5 13 0
-41 -42 14 0
-41 42 96 0
-42 -43 50 0
-42 43 56 0
-43 44 47 0
-44 -45 0
-45 -46 6 0
-45 -6 46 0
-47 -48 0
-48 -10 49 0
-48 -49 10 0
-50 -51 13 0
-50 51 52 0
-51 -10 13 0
-51 -13 10 0
-52 -53 55 0
-52 53 56 0
-53 44 0
-53 54 0
-54 -13 6 0
-54 -6 13 0
-55 -56 23 0
-55 56 72 0
-56 57 0
-56 71 0
-57 58 0
-57 71 0
-58 59 0
-58 71 0
-59 60 0
-59 71 0
-60 61 0
-60 69 0
-61 62 0
-61 67 0
-62 63 0
-62 65 0
-63 -23 64 0
-63 -64 23 0
-65 -23 66 0
-65 -66 23 0
-67 -23 68 0
-67 -68 23 0
-69 -23 70 0
-69 -70 23 0
-7 -8 0
-71 -23 23 0
-72 -73 23 0
-72 73 77 0
-73 69 0
-73 74 0
-74 67 0
-74 75 0
-75 65 0
-75 76 0
-76 -13 64 0
-76 -64 13 0
-77 -78 23 0
-77 78 82 0
-78 69 0
-78 79 0
-79 67 0
-79 80 0
-8 -10 9 0
-8 -9 10 0
-80 63 0
-80 81 0
-81 -13 66 0
-81 -66 13 0
-82 -83 23 0
-82 83 86 0
-83 69 0
-83 84 0
-84 67 0
-84 85 0
-85 76 0
-85 81 0
-86 -87 23 0
-86 87 90 0
-87 69 0
-87 88 0
-88 62 0
-88 89 0
-89 -13 68 0
-89 -68 13 0
-90 -91 23 0
-90 91 93 0
-91 69 0
-91 92 0
-92 75 0
-92 89 0
-93 -94 23 0
-93 94 56 0
-94 69 0
-94 95 0
-95 80 0
-95 89 0
-96 117 0
-96 97 0
-97 115 0
-97 98 0
-98 113 0
-98 99 0
-99 100 0
-99 111 0
1 -11 -96 0
1 -2 -11 0
1 0
1 2 -96 0
100 -101 -109 0
101 -102 -107 0
102 -103 -105 0
103 -22 -104 0
103 22 104 0
105 -25 -106 0
105 25 106 0
107 -27 -108 0
107 27 108 0
109 -29 -110 0
109 29 110 0
11 -12 -14 0
11 -14 -38 0
11 12 -38 0
111 -31 -112 0
111 31 112 0
113 -33 -114 0
113 33 114 0
115 -35 -116 0
115 35 116 0
117 -37 -118 0
117 37 118 0
12 -9 -13 0
12 9 13 0
13 0
14 -15 -36 0
15 -16 -34 0
16 -17 -32 0
17 -18 -30 0
18 -19 -28 0
19 -20 -26 0
2 -3 0
2 -7 0
20 -21 -24 0
21 -22 -23 0
21 22 23 0
24 -25 -23 0
24 25 23 0
26 -27 -23 0
26 27 23 0
28 -29 -23 0
28 29 23 0
3 4 0
30 -31 -23 0
30 31 23 0
32 -33 -23 0
32 33 23 0
34 -35 -23 0
34 35 23 0
36 -37 -23 0
36 37 23 0
38 -39 -41 0
38 -41 -96 0
38 39 -96 0
39 -3 -40 0
4 -5 -6 0
4 5 6 0
40 -5 -13 0
40 5 13 0
41 -14 -96 0
41 -42 -14 0
41 42 -96 0
42 -43 -50 0
42 -50 -56 0
42 43 -56 0
43 -44 0
43 -47 0
44 45 0
45 -6 -46 0
45 6 46 0
47 48 0
48 -10 -49 0
48 10 49 0
50 -13 -52 0
50 -51 -13 0
50 51 -52 0
51 -10 -13 0
51 10 13 0
52 -53 -55 0
52 -55 -56 0
52 53 -56 0
53 -44 -54 0
54 -6 -13 0
54 6 13 0
55 -23 -72 0
55 -56 -23 0
55 56 -72 0
56 -57 -71 0
57 -58 -71 0
58 -59 -71 0
59 -60 -71 0
60 -61 -69 0
61 -62 -67 0
62 -63 -65 0
63 -64 -23 0
63 64 23 0
65 -66 -23 0
65 66 23 0
67 -68 -23 0
67 68 23 0
69 -70 -23 0
69 70 23 0
7 8 0
71 -23 -23 0
71 23 23 0
72 -23 -77 0
72 -73 -23 0
72 73 -77 0
73 -74 -69 0
74 -75 -67 0
75 -76 -65 0
76 -64 -13 0
76 64 13 0
77 -23 -82 0
77 -78 -23 0
77 78 -82 0
78 -79 -69 0
79 -80 -67 0
8 -9 -10 0
8 9 10 0
80 -63 -81 0
81 -66 -13 0
81 66 13 0
82 -23 -86 0
82 -83 -23 0
82 83 -86 0
83 -84 -69 0
84 -85 -67 0
85 -76 -81 0
86 -23 -90 0
86 -87 -23 0
86 87 -90 0
87 -88 -69 0
88 -62 -89 0
89 -68 -13 0
89 68 13 0
90 -23 -93 0
90 -91 -23 0
90 91 -93 0
91 -92 -69 0
92 -75 -89 0
93 -23 -56 0
93 -94 -23 0
93 94 -56 0
94 -95 -69 0
95 -80 -89 0
96 -97 -117 0
97 -98 -115 0
98 -99 -113 0
99 -100 -111 0
